
Gurobi 9.0.3 (linux64) logging started Wed May 29 00:10:35 2024

Gurobi Optimizer version 9.0.3 build v9.0.3rc0 (linux64)
Optimize a model with 444 rows, 292 columns and 1476 nonzeros
Model fingerprint: 0xf22cc19e
Variable types: 170 continuous, 122 integer (122 binary)
Coefficient statistics:
  Matrix range     [1e+00, 1e+00]
  Objective range  [9e-04, 6e-01]
  Bounds range     [1e+00, 1e+00]
  RHS range        [1e+00, 1e+00]
Found heuristic solution: objective 0.6678009
Presolve removed 17 rows and 17 columns
Presolve time: 0.00s
Presolved: 427 rows, 275 columns, 1452 nonzeros
Extracted 310 lazy constraints
Variable types: 160 continuous, 115 integer (115 binary)

Root relaxation: objective 2.458181e+00, 0 iterations, 0.00 seconds

    Nodes    |    Current Node    |     Objective Bounds      |     Work
 Expl Unexpl |  Obj  Depth IntInf | Incumbent    BestBd   Gap | It/Node Time

*    0     0               0       2.4483140    2.44831  0.00%     -    0s

Cutting planes:
  Lazy constraints: 21

Explored 0 nodes (49 simplex iterations) in 0.01 seconds
Thread count was 8 (of 8 available processors)

Solution count 2: 2.44831 0.667801 

Optimal solution found (tolerance 0.00e+00)
Best objective 2.448314000000e+00, best bound 2.448314000000e+00, gap 0.0000%

User-callback calls 51, time in user-callback 0.00 sec

Gurobi 9.0.3 (linux64) logging started Wed May 29 00:12:14 2024

Gurobi Optimizer version 9.0.3 build v9.0.3rc0 (linux64)
Optimize a model with 444 rows, 292 columns and 1476 nonzeros
Model fingerprint: 0xf22cc19e
Variable types: 170 continuous, 122 integer (122 binary)
Coefficient statistics:
  Matrix range     [1e+00, 1e+00]
  Objective range  [9e-04, 6e-01]
  Bounds range     [1e+00, 1e+00]
  RHS range        [1e+00, 1e+00]
Found heuristic solution: objective 0.6678009
Presolve removed 17 rows and 17 columns
Presolve time: 0.00s
Presolved: 427 rows, 275 columns, 1452 nonzeros
Extracted 310 lazy constraints
Variable types: 160 continuous, 115 integer (115 binary)

Root relaxation: objective 2.458181e+00, 0 iterations, 0.00 seconds

    Nodes    |    Current Node    |     Objective Bounds      |     Work
 Expl Unexpl |  Obj  Depth IntInf | Incumbent    BestBd   Gap | It/Node Time

*    0     0               0       2.4483140    2.44831  0.00%     -    0s

Cutting planes:
  Lazy constraints: 21

Explored 0 nodes (49 simplex iterations) in 0.01 seconds
Thread count was 8 (of 8 available processors)

Solution count 2: 2.44831 0.667801 

Optimal solution found (tolerance 0.00e+00)
Best objective 2.448314000000e+00, best bound 2.448314000000e+00, gap 0.0000%

User-callback calls 51, time in user-callback 0.00 sec

Gurobi 9.0.3 (linux64) logging started Wed May 29 00:13:28 2024

Gurobi Optimizer version 9.0.3 build v9.0.3rc0 (linux64)
Optimize a model with 444 rows, 292 columns and 1476 nonzeros
Model fingerprint: 0xf22cc19e
Variable types: 170 continuous, 122 integer (122 binary)
Coefficient statistics:
  Matrix range     [1e+00, 1e+00]
  Objective range  [9e-04, 6e-01]
  Bounds range     [1e+00, 1e+00]
  RHS range        [1e+00, 1e+00]
Found heuristic solution: objective 0.6678009
Presolve removed 17 rows and 17 columns
Presolve time: 0.00s
Presolved: 427 rows, 275 columns, 1452 nonzeros
Extracted 310 lazy constraints
Variable types: 160 continuous, 115 integer (115 binary)

Root relaxation: objective 2.458181e+00, 0 iterations, 0.00 seconds

    Nodes    |    Current Node    |     Objective Bounds      |     Work
 Expl Unexpl |  Obj  Depth IntInf | Incumbent    BestBd   Gap | It/Node Time

*    0     0               0       2.4483140    2.44831  0.00%     -    0s

Cutting planes:
  Lazy constraints: 21

Explored 0 nodes (49 simplex iterations) in 0.01 seconds
Thread count was 8 (of 8 available processors)

Solution count 2: 2.44831 0.667801 

Optimal solution found (tolerance 0.00e+00)
Best objective 2.448314000000e+00, best bound 2.448314000000e+00, gap 0.0000%

User-callback calls 51, time in user-callback 0.00 sec

Gurobi 9.0.3 (linux64) logging started Wed May 29 00:15:56 2024

Gurobi Optimizer version 9.0.3 build v9.0.3rc0 (linux64)
Optimize a model with 444 rows, 292 columns and 1476 nonzeros
Model fingerprint: 0xf22cc19e
Variable types: 170 continuous, 122 integer (122 binary)
Coefficient statistics:
  Matrix range     [1e+00, 1e+00]
  Objective range  [9e-04, 6e-01]
  Bounds range     [1e+00, 1e+00]
  RHS range        [1e+00, 1e+00]
Found heuristic solution: objective 0.6678009
Presolve removed 17 rows and 17 columns
Presolve time: 0.00s
Presolved: 427 rows, 275 columns, 1452 nonzeros
Extracted 310 lazy constraints
Variable types: 160 continuous, 115 integer (115 binary)

Root relaxation: objective 2.458181e+00, 0 iterations, 0.00 seconds

    Nodes    |    Current Node    |     Objective Bounds      |     Work
 Expl Unexpl |  Obj  Depth IntInf | Incumbent    BestBd   Gap | It/Node Time

*    0     0               0       2.4483140    2.44831  0.00%     -    0s

Cutting planes:
  Lazy constraints: 21

Explored 0 nodes (49 simplex iterations) in 0.01 seconds
Thread count was 8 (of 8 available processors)

Solution count 2: 2.44831 0.667801 

Optimal solution found (tolerance 0.00e+00)
Best objective 2.448314000000e+00, best bound 2.448314000000e+00, gap 0.0000%

User-callback calls 51, time in user-callback 0.00 sec

Gurobi 9.0.3 (linux64) logging started Wed May 29 00:16:39 2024

Gurobi Optimizer version 9.0.3 build v9.0.3rc0 (linux64)
Optimize a model with 444 rows, 292 columns and 1476 nonzeros
Model fingerprint: 0xf22cc19e
Variable types: 170 continuous, 122 integer (122 binary)
Coefficient statistics:
  Matrix range     [1e+00, 1e+00]
  Objective range  [9e-04, 6e-01]
  Bounds range     [1e+00, 1e+00]
  RHS range        [1e+00, 1e+00]
Found heuristic solution: objective 0.6678009
Presolve removed 17 rows and 17 columns
Presolve time: 0.00s
Presolved: 427 rows, 275 columns, 1452 nonzeros
Extracted 310 lazy constraints
Variable types: 160 continuous, 115 integer (115 binary)

Root relaxation: objective 2.458181e+00, 0 iterations, 0.00 seconds

    Nodes    |    Current Node    |     Objective Bounds      |     Work
 Expl Unexpl |  Obj  Depth IntInf | Incumbent    BestBd   Gap | It/Node Time

*    0     0               0       2.4483140    2.44831  0.00%     -    0s

Cutting planes:
  Lazy constraints: 21

Explored 0 nodes (49 simplex iterations) in 0.01 seconds
Thread count was 8 (of 8 available processors)

Solution count 2: 2.44831 0.667801 

Optimal solution found (tolerance 0.00e+00)
Best objective 2.448314000000e+00, best bound 2.448314000000e+00, gap 0.0000%

User-callback calls 51, time in user-callback 0.00 sec

Gurobi 9.0.3 (linux64) logging started Wed May 29 00:16:45 2024

Gurobi Optimizer version 9.0.3 build v9.0.3rc0 (linux64)
Optimize a model with 434 rows, 292 columns and 1476 nonzeros
Model fingerprint: 0xaa157618
Variable types: 170 continuous, 122 integer (122 binary)
Coefficient statistics:
  Matrix range     [1e+00, 1e+00]
  Objective range  [9e-04, 6e-01]
  Bounds range     [1e+00, 1e+00]
  RHS range        [1e+00, 1e+00]
Found heuristic solution: objective 0.6678009
Presolve removed 10 rows and 17 columns
Presolve time: 0.00s
Presolved: 424 rows, 275 columns, 1446 nonzeros
Extracted 310 lazy constraints
Variable types: 160 continuous, 115 integer (115 binary)

Root relaxation: objective 2.458181e+00, 0 iterations, 0.00 seconds

    Nodes    |    Current Node    |     Objective Bounds      |     Work
 Expl Unexpl |  Obj  Depth IntInf | Incumbent    BestBd   Gap | It/Node Time

*    0     0               0       2.4483140    2.44831  0.00%     -    0s

Cutting planes:
  Lazy constraints: 21

Explored 0 nodes (47 simplex iterations) in 0.01 seconds
Thread count was 8 (of 8 available processors)

Solution count 2: 2.44831 0.667801 

Optimal solution found (tolerance 0.00e+00)
Best objective 2.448314000000e+00, best bound 2.448314000000e+00, gap 0.0000%

User-callback calls 51, time in user-callback 0.00 sec

Gurobi 9.0.3 (linux64) logging started Wed May 29 00:16:48 2024

Gurobi Optimizer version 9.0.3 build v9.0.3rc0 (linux64)
Optimize a model with 486 rows, 292 columns and 2183 nonzeros
Model fingerprint: 0x9a383a21
Variable types: 170 continuous, 122 integer (122 binary)
Coefficient statistics:
  Matrix range     [1e+00, 1e+00]
  Objective range  [9e-04, 6e-01]
  Bounds range     [1e+00, 1e+00]
  RHS range        [1e+00, 1e+00]
Found heuristic solution: objective 0.6678009
Presolve removed 12 rows and 17 columns
Presolve time: 0.01s
Presolved: 474 rows, 275 columns, 2147 nonzeros
Extracted 360 lazy constraints
Variable types: 160 continuous, 115 integer (115 binary)

Root relaxation: objective 2.458181e+00, 0 iterations, 0.00 seconds

    Nodes    |    Current Node    |     Objective Bounds      |     Work
 Expl Unexpl |  Obj  Depth IntInf | Incumbent    BestBd   Gap | It/Node Time

*    0     0               0       2.4483140    2.44831  0.00%     -    0s

Cutting planes:
  Lazy constraints: 27

Explored 0 nodes (47 simplex iterations) in 0.01 seconds
Thread count was 8 (of 8 available processors)

Solution count 2: 2.44831 0.667801 

Optimal solution found (tolerance 0.00e+00)
Best objective 2.448314000000e+00, best bound 2.448314000000e+00, gap 0.0000%

User-callback calls 53, time in user-callback 0.00 sec
